* MOL main file generated by charmmgen
* author: Victor Bazterra 2004 CHPC
* 

Read rtf card name mobley_5857_CHARMM.rtf

Read param card name mobley_5857_CHARMM.prm

Read sequence card
* Reading the coordinates of residue
* 
    1
MOL
Generate MOL setup
Read coor card free
* Residues coordinate
* 
   17
    1    1 MOL  C1     0.20600   2.06800  -0.54900
    2    1 MOL  C2    -0.51100   0.89800  -0.33600
    3    1 MOL  C3    -3.91300   4.27000  -1.83700
    4    1 MOL  C4    -0.45900   3.21300  -0.97900
    5    1 MOL  C5    -2.54200   4.32600  -1.63000
    6    1 MOL  C6    -1.89100   0.87400  -0.55300
    7    1 MOL  C7    -4.54500   3.06600  -1.60000
    8    1 MOL  C8    -1.84700   3.18800  -1.19700
    9    1 MOL  C9    -2.58200   2.00300  -0.98300
   10    1 MOL  N1    -3.91200   1.94600  -1.18200
   11    1 MOL  H1     1.27900   2.09000  -0.38300
   12    1 MOL  H2     0.00000   0.00000  -0.00000
   13    1 MOL  H3    -4.46600   5.14000  -2.16900
   14    1 MOL  H4     0.11200   4.12400  -1.14300
   15    1 MOL  H5    -2.01800   5.26200  -1.80900
   16    1 MOL  H6    -2.43000  -0.05600  -0.37800
   17    1 MOL  H7    -5.61500   2.96200  -1.74400
Energy ihbfrq 0 inbfrq -1
Open write card unit 14 name tmp.out
Write energy card unit 14
* MOL energy before the optimization
* 
Minimise Abnr Nstep 5000 Tolgrd 0.00001
Write energy card unit 14
* MOL energy after optimization
* 
Write coor card unit 14
* MOL energy after optimization
* 
